set VV := 0 1 2 3 4 5 6 7 8 9 10 11 12 13 14 15 16 17 18 19 20 21 22 23 24 25 ;
set VS := 0 1 2 3 4 5 6 7 8 9 10 11 12 13 14 15 16 17 18 19 20 21 22 23 24 25 26 27 28 29 30 31 32 33 34 35 36 37 38 39 40 41 42 43 44 45 46 47 48 49 50 51 52 53 54 55 ;
param cv := 
0 12
1 12
2 12
3 18
4 16
5 24
6 11
7 12
8 10
9 14
10 23
11 20
12 15
13 17
14 16
15 12
16 15
17 14
18 24
19 15
20 10
21 23
22 15
23 23
24 15
25 20
;
param cs := 
0 39
1 35
2 24
3 23
4 38
5 34
6 40
7 38
8 29
9 20
10 24
11 23
12 31
13 28
14 31
15 20
16 31
17 39
18 20
19 20
20 33
21 25
22 35
23 33
24 32
25 32
26 37
27 38
28 31
29 30
30 23
31 22
32 33
33 31
34 40
35 31
36 35
37 35
38 34
39 32
40 37
41 36
42 32
43 40
44 24
45 35
46 40
47 27
48 23
49 30
50 31
51 37
52 36
53 33
54 22
55 38
;
param bv:	 0 1 2 3 4 5 6 7 8 9 10 11 12 13 14 15 16 17 18 19 20 21 22 23 24 25 := 
		0 0 16 0 0 0 0 0 0 0 0 0 0 0 0 0 0 0 0 0 0 0 0 0 0 0 0 
		1 0 0 0 0 0 20 22 0 0 0 0 0 0 0 0 0 0 0 0 0 0 0 0 0 0 0 
		2 0 0 0 0 0 23 0 0 0 0 0 0 0 0 0 0 0 0 0 0 0 0 0 23 0 0 
		3 0 0 0 0 0 18 0 0 0 0 0 0 0 0 0 0 0 0 0 0 15 24 15 14 0 0 
		4 0 0 0 0 0 0 0 0 0 0 0 0 0 0 0 15 0 0 0 0 0 0 0 0 0 16 
		5 0 0 0 0 0 0 0 0 0 0 0 0 0 0 0 0 0 0 0 0 0 0 0 0 15 0 
		6 0 0 0 0 0 0 0 0 0 22 0 0 0 0 0 0 0 0 0 0 0 0 0 0 0 0 
		7 0 0 0 0 0 0 0 0 0 0 0 0 0 10 0 0 0 0 14 0 0 0 0 0 0 17 
		8 0 0 0 0 0 0 0 0 0 17 16 0 18 15 17 0 24 0 0 0 0 21 23 18 23 0 
		9 0 0 0 0 0 0 0 0 0 0 0 0 0 0 0 0 0 0 0 0 0 0 0 0 0 16 
		10 0 0 0 0 0 0 0 0 0 0 0 12 18 0 0 0 0 0 0 0 0 0 0 11 0 0 
		11 0 0 0 0 0 0 0 0 0 0 0 0 19 0 0 0 0 0 0 0 0 0 0 0 0 0 
		12 0 0 0 0 0 0 0 0 0 0 0 0 0 23 11 0 0 0 0 18 0 0 0 0 0 0 
		13 0 0 0 0 0 0 0 0 0 0 0 0 0 0 0 0 0 0 0 0 0 0 0 0 0 11 
		14 0 0 0 0 0 0 0 0 0 0 0 0 0 0 0 0 0 23 0 0 0 0 0 0 21 0 
		15 0 0 0 0 0 0 0 0 0 0 0 0 0 0 0 0 0 0 0 0 0 0 0 0 10 0 
		16 0 0 0 0 0 0 0 0 0 0 0 0 0 0 0 0 0 0 0 0 0 0 0 0 0 0 
		17 0 0 0 0 0 0 0 0 0 0 0 0 0 0 0 0 0 0 0 0 0 0 0 0 12 0 
		18 0 0 0 0 0 0 0 0 0 0 0 0 0 0 0 0 0 0 0 0 0 10 0 11 20 0 
		19 0 0 0 0 0 0 0 0 0 0 0 0 0 0 0 0 0 0 0 0 0 0 0 0 0 0 
		20 0 0 0 0 0 0 0 0 0 0 0 0 0 0 0 0 0 0 0 0 0 0 0 0 0 0 
		21 0 0 0 0 0 0 0 0 0 0 0 0 0 0 0 0 0 0 0 0 0 0 11 0 0 0 
		22 0 0 0 0 0 0 0 0 0 0 0 0 0 0 0 0 0 0 0 0 0 0 0 0 0 0 
		23 0 0 0 0 0 0 0 0 0 0 0 0 0 0 0 0 0 0 0 0 0 0 0 0 14 0 
		24 0 0 0 0 0 0 0 0 0 0 0 0 0 0 0 0 0 0 0 0 0 0 0 0 0 0 
		25 0 0 0 0 0 0 0 0 0 0 0 0 0 0 0 0 0 0 0 0 0 0 0 0 0 0 
;
param bs:	 0 1 2 3 4 5 6 7 8 9 10 11 12 13 14 15 16 17 18 19 20 21 22 23 24 25 26 27 28 29 30 31 32 33 34 35 36 37 38 39 40 41 42 43 44 45 46 47 48 49 50 51 52 53 54 55 := 
		0 0 35 0 0 0 0 0 0 0 0 0 0 0 0 0 0 27 0 20 0 0 0 0 40 0 0 0 0 0 0 0 0 0 0 0 0 0 0 0 0 0 0 0 0 0 0 0 0 0 0 0 0 0 0 0 0 
		1 35 0 0 0 0 0 0 0 0 0 0 0 0 0 0 0 0 0 0 0 0 0 0 0 0 0 0 0 33 0 38 0 0 0 0 0 0 40 0 0 0 0 0 0 0 0 0 0 0 0 0 34 23 0 0 0 
		2 0 0 0 0 0 0 0 39 0 0 0 30 32 0 0 0 0 0 0 0 0 0 0 33 0 0 0 39 0 0 0 0 0 0 0 0 21 0 0 0 0 0 0 0 0 0 0 38 0 0 0 0 0 0 0 0 
		3 0 0 0 0 0 0 0 0 0 0 0 0 0 0 0 0 26 0 0 26 27 0 0 0 0 0 0 0 0 0 0 0 0 37 0 0 0 36 0 0 0 0 0 0 0 25 0 0 37 25 22 0 39 0 0 0 
		4 0 0 0 0 0 0 0 0 0 0 0 0 0 33 0 0 0 0 0 0 0 0 0 0 0 0 0 0 40 0 0 0 0 0 0 0 0 0 25 0 20 27 0 0 0 0 0 0 0 0 0 0 0 0 0 0 
		5 0 0 0 0 0 0 0 0 34 31 0 20 0 0 0 0 0 0 0 0 0 0 0 0 0 0 0 0 0 0 0 0 0 0 30 33 0 0 0 0 0 36 0 0 0 0 0 0 0 0 0 0 24 0 0 0 
		6 0 0 0 0 0 0 0 0 0 34 0 0 0 0 0 20 0 0 0 0 0 0 0 0 0 0 0 0 0 0 0 0 0 0 0 0 0 0 25 0 0 31 0 0 40 20 0 29 0 0 0 0 0 0 37 0 
		7 0 0 39 0 0 0 0 0 0 0 0 0 0 0 0 0 0 23 0 0 0 0 0 26 0 0 0 0 0 0 0 0 0 0 0 0 0 0 0 0 0 0 0 0 0 0 0 0 0 0 0 0 0 0 0 0 
		8 0 0 0 0 0 34 0 0 0 0 0 0 0 0 0 28 0 0 0 0 0 0 0 0 0 0 0 0 0 0 0 0 0 0 0 0 0 0 29 34 0 29 0 0 30 0 0 39 0 0 0 0 0 0 0 0 
		9 0 0 0 0 0 31 34 0 0 0 0 0 29 0 0 0 0 0 0 0 0 0 0 0 0 0 0 0 0 0 0 0 0 0 0 0 0 0 0 0 0 0 0 0 0 0 0 39 0 0 0 0 36 0 0 0 
		10 0 0 0 0 0 0 0 0 0 0 0 0 25 0 0 0 0 0 0 28 0 0 0 0 25 0 32 0 0 0 0 0 0 0 0 0 0 0 0 0 0 0 0 0 0 36 0 0 0 40 0 0 0 0 0 0 
		11 0 0 30 0 0 20 0 0 0 0 0 0 0 0 0 0 0 0 0 0 0 0 0 0 0 0 0 0 0 0 0 0 0 0 27 0 0 0 0 33 0 0 0 0 0 0 25 24 0 0 0 0 0 0 0 0 
		12 0 0 32 0 0 0 0 0 0 29 25 0 0 0 0 0 0 0 0 0 0 0 33 0 0 0 0 0 0 0 0 0 0 35 22 0 0 0 0 0 0 0 24 0 24 0 0 0 0 30 0 0 0 0 0 0 
		13 0 0 0 0 33 0 0 0 0 0 0 0 0 0 0 0 0 0 0 0 25 0 0 0 0 0 0 0 0 0 0 0 0 0 0 33 0 0 0 0 0 0 0 0 0 34 0 0 0 0 0 0 0 0 0 0 
		14 0 0 0 0 0 0 0 0 0 0 0 0 0 0 0 0 0 0 0 0 0 0 0 0 0 26 0 0 0 0 0 0 0 0 0 0 0 0 0 0 0 0 0 0 0 0 0 0 0 37 0 0 0 0 0 0 
		15 0 0 0 0 0 0 20 0 28 0 0 0 0 0 0 0 0 0 0 0 0 0 27 0 0 0 0 0 0 0 0 0 0 0 0 24 0 0 0 0 0 0 0 0 0 0 0 0 0 25 0 0 0 0 0 0 
		16 27 0 0 26 0 0 0 0 0 0 0 0 0 0 0 0 0 0 35 27 0 0 0 0 0 0 0 0 20 0 35 0 0 27 0 0 0 0 31 0 0 0 0 35 0 29 0 0 0 0 0 0 0 0 33 0 
		17 0 0 0 0 0 0 0 23 0 0 0 0 0 0 0 0 0 0 32 0 0 0 0 0 0 0 0 0 0 36 0 0 0 0 0 32 0 0 0 0 0 0 40 0 0 0 0 0 0 0 0 0 0 40 0 35 
		18 20 0 0 0 0 0 0 0 0 0 0 0 0 0 0 0 35 32 0 0 0 0 0 0 0 0 0 0 0 37 0 0 40 0 0 0 0 0 0 0 0 0 26 0 0 0 0 0 35 0 0 35 0 0 24 0 
		19 0 0 0 26 0 0 0 0 0 0 28 0 0 0 0 0 27 0 0 0 0 0 0 21 0 0 0 0 0 0 21 0 0 36 0 0 0 0 0 0 0 0 0 25 0 25 0 0 0 0 25 0 0 0 0 0 
		20 0 0 0 27 0 0 0 0 0 0 0 0 0 25 0 0 0 0 0 0 0 0 0 0 0 0 0 0 0 0 0 0 0 0 0 0 24 0 0 0 0 0 0 0 0 0 0 0 0 0 0 0 21 0 0 36 
		21 0 0 0 0 0 0 0 0 0 0 0 0 0 0 0 0 0 0 0 0 0 0 0 33 0 0 0 0 0 0 0 0 0 0 0 0 0 0 0 0 0 0 0 0 0 0 0 0 0 0 23 0 0 0 0 0 
		22 0 0 0 0 0 0 0 0 0 0 0 0 33 0 0 27 0 0 0 0 0 0 0 0 0 0 0 0 0 0 0 0 0 0 34 0 25 0 0 0 0 0 0 0 0 0 0 0 37 0 0 22 0 0 0 0 
		23 40 0 33 0 0 0 0 26 0 0 0 0 0 0 0 0 0 0 0 21 0 33 0 0 0 0 0 0 0 0 0 0 0 32 0 0 0 0 0 0 0 0 0 0 0 0 0 0 0 0 36 37 0 28 0 29 
		24 0 0 0 0 0 0 0 0 0 0 25 0 0 0 0 0 0 0 0 0 0 0 0 0 0 0 0 0 0 0 0 0 0 0 0 0 0 0 0 0 24 0 0 0 0 0 0 0 0 0 0 0 0 0 0 0 
		25 0 0 0 0 0 0 0 0 0 0 0 0 0 0 26 0 0 0 0 0 0 0 0 0 0 0 0 0 0 0 0 0 0 0 26 0 22 0 0 0 0 0 0 0 0 37 0 0 29 0 0 0 0 0 0 0 
		26 0 0 0 0 0 0 0 0 0 0 32 0 0 0 0 0 0 0 0 0 0 0 0 0 0 0 0 0 0 0 0 0 0 0 0 0 0 0 0 0 0 32 0 0 0 0 0 0 0 0 0 0 0 0 0 0 
		27 0 0 39 0 0 0 0 0 0 0 0 0 0 0 0 0 0 0 0 0 0 0 0 0 0 0 0 0 0 0 0 0 0 0 0 0 0 0 0 0 31 0 0 0 0 0 0 0 0 0 0 0 24 0 0 0 
		28 0 33 0 0 40 0 0 0 0 0 0 0 0 0 0 0 20 0 0 0 0 0 0 0 0 0 0 0 0 27 0 0 32 0 0 0 0 0 0 0 0 0 30 26 0 0 0 0 0 0 0 0 21 0 0 0 
		29 0 0 0 0 0 0 0 0 0 0 0 0 0 0 0 0 0 36 37 0 0 0 0 0 0 0 0 0 27 0 0 0 26 0 0 0 0 34 0 0 0 0 0 0 0 0 0 0 20 0 0 0 0 0 0 0 
		30 0 38 0 0 0 0 0 0 0 0 0 0 0 0 0 0 35 0 0 21 0 0 0 0 0 0 0 0 0 0 0 0 0 35 0 0 0 0 0 0 0 0 0 0 0 0 0 0 0 0 28 31 0 0 0 0 
		31 0 0 0 0 0 0 0 0 0 0 0 0 0 0 0 0 0 0 0 0 0 0 0 0 0 0 0 0 0 0 0 0 0 0 0 0 0 0 0 0 0 0 0 0 0 0 23 0 40 0 0 0 0 0 0 0 
		32 0 0 0 0 0 0 0 0 0 0 0 0 0 0 0 0 0 0 40 0 0 0 0 0 0 0 0 0 32 26 0 0 0 0 0 37 0 26 0 0 0 0 0 0 0 32 0 0 22 30 0 0 0 0 0 0 
		33 0 0 0 37 0 0 0 0 0 0 0 0 35 0 0 0 27 0 0 36 0 0 0 32 0 0 0 0 0 0 35 0 0 0 0 0 0 26 0 0 39 0 0 0 0 0 0 0 0 0 0 0 39 0 24 0 
		34 0 0 0 0 0 30 0 0 0 0 0 27 22 0 0 0 0 0 0 0 0 0 34 0 0 26 0 0 0 0 0 0 0 0 0 0 0 0 0 0 0 0 0 0 0 0 0 0 35 20 0 0 0 0 0 0 
		35 0 0 0 0 0 33 0 0 0 0 0 0 0 33 0 24 0 32 0 0 0 0 0 0 0 0 0 0 0 0 0 0 37 0 0 0 0 0 0 38 33 0 21 0 0 0 0 25 0 0 33 0 0 34 0 0 
		36 0 0 21 0 0 0 0 0 0 0 0 0 0 0 0 0 0 0 0 0 24 0 25 0 0 22 0 0 0 0 0 0 0 0 0 0 0 0 0 0 0 27 0 0 0 32 0 0 0 0 0 0 0 0 0 0 
		37 0 40 0 36 0 0 0 0 0 0 0 0 0 0 0 0 0 0 0 0 0 0 0 0 0 0 0 0 0 34 0 0 26 26 0 0 0 0 20 0 0 35 0 0 0 0 0 29 33 0 0 0 33 0 0 0 
		38 0 0 0 0 25 0 25 0 29 0 0 0 0 0 0 0 31 0 0 0 0 0 0 0 0 0 0 0 0 0 0 0 0 0 0 0 0 20 0 0 0 0 0 0 0 0 22 0 0 0 0 0 21 0 25 0 
		39 0 0 0 0 0 0 0 0 34 0 0 33 0 0 0 0 0 0 0 0 0 0 0 0 0 0 0 0 0 0 0 0 0 0 0 38 0 0 0 0 0 0 0 0 0 0 0 0 0 0 24 0 0 0 0 0 
		40 0 0 0 0 20 0 0 0 0 0 0 0 0 0 0 0 0 0 0 0 0 0 0 0 24 0 0 31 0 0 0 0 0 39 0 33 0 0 0 0 0 0 0 0 0 0 0 0 0 0 0 0 0 0 20 0 
		41 0 0 0 0 27 36 31 0 29 0 0 0 0 0 0 0 0 0 0 0 0 0 0 0 0 0 32 0 0 0 0 0 0 0 0 0 27 35 0 0 0 0 0 0 0 0 0 0 0 0 0 0 0 0 0 0 
		42 0 0 0 0 0 0 0 0 0 0 0 0 24 0 0 0 0 40 26 0 0 0 0 0 0 0 0 0 30 0 0 0 0 0 0 21 0 0 0 0 0 0 0 0 0 0 0 26 0 0 0 0 0 21 0 0 
		43 0 0 0 0 0 0 0 0 0 0 0 0 0 0 0 0 35 0 0 25 0 0 0 0 0 0 0 0 26 0 0 0 0 0 0 0 0 0 0 0 0 0 0 0 0 0 0 0 0 0 0 0 0 0 0 0 
		44 0 0 0 0 0 0 40 0 30 0 0 0 24 0 0 0 0 0 0 0 0 0 0 0 0 0 0 0 0 0 0 0 0 0 0 0 0 0 0 0 0 0 0 0 0 27 0 22 0 0 0 25 0 22 30 0 
		45 0 0 0 25 0 0 20 0 0 0 36 0 0 34 0 0 29 0 0 25 0 0 0 0 0 37 0 0 0 0 0 0 32 0 0 0 32 0 0 0 0 0 0 0 27 0 0 0 0 0 0 20 0 0 0 0 
		46 0 0 0 0 0 0 0 0 0 0 0 25 0 0 0 0 0 0 0 0 0 0 0 0 0 0 0 0 0 0 0 23 0 0 0 0 0 0 22 0 0 0 0 0 0 0 0 0 0 0 0 0 0 0 0 0 
		47 0 0 38 0 0 0 29 0 39 39 0 24 0 0 0 0 0 0 0 0 0 0 0 0 0 0 0 0 0 0 0 0 0 0 0 25 0 29 0 0 0 0 26 0 22 0 0 0 0 0 0 0 0 0 0 0 
		48 0 0 0 37 0 0 0 0 0 0 0 0 0 0 0 0 0 0 35 0 0 0 37 0 0 29 0 0 0 20 0 40 22 0 35 0 0 33 0 0 0 0 0 0 0 0 0 0 0 0 0 0 0 0 0 30 
		49 0 0 0 25 0 0 0 0 0 0 40 0 30 0 37 25 0 0 0 0 0 0 0 0 0 0 0 0 0 0 0 0 30 0 20 0 0 0 0 0 0 0 0 0 0 0 0 0 0 0 0 0 0 0 0 0 
		50 0 0 0 22 0 0 0 0 0 0 0 0 0 0 0 0 0 0 0 25 0 23 0 36 0 0 0 0 0 0 28 0 0 0 0 33 0 0 0 24 0 0 0 0 0 0 0 0 0 0 0 0 0 0 0 0 
		51 0 34 0 0 0 0 0 0 0 0 0 0 0 0 0 0 0 0 35 0 0 0 22 37 0 0 0 0 0 0 31 0 0 0 0 0 0 0 0 0 0 0 0 0 25 20 0 0 0 0 0 0 0 0 0 0 
		52 0 23 0 39 0 24 0 0 0 36 0 0 0 0 0 0 0 0 0 0 21 0 0 0 0 0 0 24 21 0 0 0 0 39 0 0 0 33 21 0 0 0 0 0 0 0 0 0 0 0 0 0 0 38 0 0 
		53 0 0 0 0 0 0 0 0 0 0 0 0 0 0 0 0 0 40 0 0 0 0 0 28 0 0 0 0 0 0 0 0 0 0 0 34 0 0 0 0 0 0 21 0 22 0 0 0 0 0 0 0 38 0 34 0 
		54 0 0 0 0 0 0 37 0 0 0 0 0 0 0 0 0 33 0 24 0 0 0 0 0 0 0 0 0 0 0 0 0 0 24 0 0 0 0 25 0 20 0 0 0 30 0 0 0 0 0 0 0 0 34 0 0 
		55 0 0 0 0 0 0 0 0 0 0 0 0 0 0 0 0 0 35 0 0 36 0 0 29 0 0 0 0 0 0 0 0 0 0 0 0 0 0 0 0 0 0 0 0 0 0 0 0 30 0 0 0 0 0 0 0 
;
